100	5
25	200
10
7
13
19
26
3
5
9
16
16
12
19
23
20
8
19
2
12
17
9
11
18
29
3
6
17
16
16
9
21
27
23
11
14
8
5
8
16
31
9
5
5
7
18
16
1
27
36
30
13
10
9
14
18
2
6
7
18
28
3
13
19
10
9
20
25
25
36
6
5
15
25
9
8
18
13
14
3
23
6
26
16
11
7
41
35
26
9
15
3
1
2
22
27
20
11
12
10
9
17
35	35	0	230	0	0
41	49	0	204	10	3
35	17	0	202	10	1
55	45	0	197	10	2
55	20	139	169	10	1
15	30	0	199	10	3
25	30	89	119	10	1
20	50	0	198	10	3
10	43	85	115	10	2
55	60	87	117	10	1
30	60	114	144	10	2
20	65	57	87	10	2
50	35	0	205	10	3
30	25	149	179	10	2
15	10	32	62	10	2
30	5	51	81	10	1
10	20	65	95	10	3
5	30	147	177	10	2
20	40	77	107	10	1
15	60	66	96	10	2
45	65	116	146	10	2
45	20	0	201	10	2
45	10	87	117	10	3
55	5	58	88	10	1
65	35	143	173	10	2
65	20	156	186	10	2
45	30	0	208	10	3
35	40	27	57	10	1
41	37	29	59	10	2
64	42	53	83	10	1
40	60	61	91	10	3
31	52	0	202	10	1
35	69	131	161	10	2
53	52	27	57	10	1
65	55	0	183	10	3
63	65	133	163	10	2
2	60	41	71	10	2
20	20	0	198	10	3
5	5	73	103	10	2
60	12	34	64	10	1
40	25	75	105	10	1
42	7	87	117	10	2
24	12	25	55	10	1
23	3	122	152	10	2
11	14	59	89	10	1
6	38	29	59	10	2
2	48	107	137	10	2
8	56	41	71	10	2
13	52	0	192	10	2
6	68	98	128	10	3
47	47	0	203	10	3
49	58	78	108	10	2
27	43	0	208	10	2
37	31	85	115	10	3
57	29	130	160	10	3
63	23	126	156	10	3
53	12	120	150	10	2
32	12	91	121	10	2
36	26	180	210	10	2
21	24	0	202	10	3
17	34	152	182	10	2
12	24	66	96	10	2
24	58	48	78	10	3
27	69	34	64	10	1
15	77	63	93	10	1
62	77	49	79	10	3
49	73	117	147	10	3
67	5	73	103	10	3
56	39	132	162	10	3
37	47	40	70	10	1
37	56	168	198	10	3
57	68	67	97	10	2
47	16	0	197	10	1
44	17	68	98	10	3
46	13	139	169	10	2
49	11	0	192	10	1
49	42	63	93	10	3
53	43	169	199	10	2
61	52	86	116	10	2
57	48	82	112	10	2
56	37	168	198	10	3
55	54	84	114	10	2
15	47	0	196	10	1
14	37	0	198	10	1
11	31	91	121	10	1
16	22	0	196	10	3
4	18	84	114	10	3
28	18	83	113	10	3
26	52	64	94	10	3
26	35	166	196	10	3
31	67	85	115	10	1
15	19	0	194	10	1
22	22	18	48	10	1
18	24	169	199	10	1
26	27	0	207	10	3
25	24	0	205	10	3
22	27	0	204	10	3
25	21	123	153	10	3
19	21	0	198	10	1
20	26	73	103	10	1
18	18	165	195	10	1
54	50	0	230	5	4
5	13	0	230	5	4
23	74	0	230	5	4
36	42	0	230	5	4
59	22	0	230	5	4
0	0	0	1	0	
0	0	0	0	0	
1	0	0	0	0	
0	0	0	0	0	
0	1	0	0	0	
0	0	0	0	0	
0	0	0	1	0	
0	0	0	1	0	
0	0	0	0	0	
0	0	1	0	0	
0	0	1	0	0	
1	0	0	0	0	
0	0	0	1	0	
0	1	0	0	0	
0	0	0	0	0	
0	1	0	0	0	
0	1	0	0	0	
0	0	0	0	0	
0	0	1	0	0	
1	0	0	0	0	
0	0	0	0	1	
0	0	0	0	1	
0	0	0	0	0	
0	0	0	0	1	
0	0	0	0	1	
0	0	0	1	0	
0	0	0	0	0	
0	0	0	1	0	
0	0	0	0	0	
1	0	0	0	0	
0	0	0	0	0	
0	0	1	0	0	
0	0	0	0	0	
1	0	0	0	0	
1	0	0	0	0	
0	0	1	0	0	
0	1	0	0	0	
0	1	0	0	0	
0	0	0	0	0	
0	0	0	0	0	
0	0	0	0	1	
0	0	0	0	0	
0	1	0	0	0	
0	0	0	0	0	
0	1	0	0	0	
0	0	1	0	0	
0	0	1	0	0	
0	0	1	0	0	
0	0	1	0	0	
1	0	0	0	0	
1	0	0	0	0	
0	0	0	1	0	
0	0	0	1	0	
0	0	0	0	1	
0	0	0	0	1	
0	0	0	0	1	
0	1	0	0	0	
0	0	0	1	0	
0	1	0	0	0	
0	0	0	1	0	
0	1	0	0	0	
0	0	1	0	0	
0	0	0	0	0	
0	0	0	0	0	
1	0	0	0	0	
1	0	0	0	0	
0	0	0	0	1	
1	0	0	0	0	
0	0	0	0	0	
0	0	0	1	0	
1	0	0	0	0	
0	0	0	0	0	
0	0	0	0	1	
0	0	0	0	1	
0	0	0	0	0	
1	0	0	0	0	
1	0	0	0	0	
1	0	0	0	0	
1	0	0	0	0	
1	0	0	0	0	
1	0	0	0	0	
0	0	0	0	0	
0	0	0	0	0	
0	0	0	0	0	
0	1	0	0	0	
0	1	0	0	0	
0	1	0	0	0	
0	0	0	1	0	
0	0	0	1	0	
0	0	0	0	0	
0	0	0	0	0	
0	0	0	0	0	
0	0	0	0	0	
0	0	0	1	0	
0	0	0	1	0	
0	0	0	1	0	
0	1	0	0	0	
0	0	0	0	0	
0	0	0	0	0	
0	0	0	0	0	
